
Gurobi 6.5.2 (linux64) logging started Sat 31 Mar 2018 05:54:05 PM PDT


Gurobi 6.5.2 (linux64) logging started Tue 03 Apr 2018 09:11:50 PM PDT


Gurobi 6.5.2 (linux64) logging started Wed 04 Apr 2018 04:14:28 PM PDT


Gurobi 6.5.2 (linux64) logging started Wed 04 Apr 2018 04:15:50 PM PDT


Gurobi 6.5.2 (linux64) logging started Wed 04 Apr 2018 04:24:34 PM PDT


Gurobi 6.5.2 (linux64) logging started Sat 14 Apr 2018 03:41:19 AM PDT


Gurobi 6.5.2 (linux64) logging started Sat 14 Apr 2018 03:52:16 AM PDT


Gurobi 6.5.2 (linux64) logging started Sat 14 Apr 2018 03:53:23 AM PDT


Gurobi 6.5.2 (linux64) logging started Sat 14 Apr 2018 03:54:44 AM PDT


Gurobi 6.5.2 (linux64) logging started Sat 14 Apr 2018 02:30:10 PM PDT


Gurobi 6.5.2 (linux64) logging started Sat 14 Apr 2018 02:31:50 PM PDT


Gurobi 6.5.2 (linux64) logging started Sat 14 Apr 2018 02:34:18 PM PDT


Gurobi 6.5.2 (linux64) logging started Sat 14 Apr 2018 02:35:03 PM PDT


Gurobi 6.5.2 (linux64) logging started Sat 14 Apr 2018 02:44:53 PM PDT


Gurobi 6.5.2 (linux64) logging started Sat 14 Apr 2018 02:47:33 PM PDT


Gurobi 6.5.2 (linux64) logging started Sat 14 Apr 2018 02:49:53 PM PDT


Gurobi 6.5.2 (linux64) logging started Sat 14 Apr 2018 02:53:59 PM PDT


Gurobi 6.5.2 (linux64) logging started Sat 14 Apr 2018 02:54:24 PM PDT


Gurobi 6.5.2 (linux64) logging started Sat 14 Apr 2018 02:57:04 PM PDT


Gurobi 6.5.2 (linux64) logging started Sat 14 Apr 2018 02:58:00 PM PDT


Gurobi 6.5.2 (linux64) logging started Sat 14 Apr 2018 02:59:33 PM PDT


Gurobi 6.5.2 (linux64) logging started Sat 14 Apr 2018 03:00:38 PM PDT


Gurobi 6.5.2 (linux64) logging started Sat 14 Apr 2018 03:02:36 PM PDT


Gurobi 6.5.2 (linux64) logging started Sat 14 Apr 2018 03:06:39 PM PDT


Gurobi 6.5.2 (linux64) logging started Sat 14 Apr 2018 03:12:07 PM PDT


Gurobi 6.5.2 (linux64) logging started Sat 14 Apr 2018 03:15:39 PM PDT


Gurobi 6.5.2 (linux64) logging started Sat 14 Apr 2018 03:32:19 PM PDT


Gurobi 6.5.2 (linux64) logging started Sat 14 Apr 2018 03:33:40 PM PDT


Gurobi 6.5.2 (linux64) logging started Sat 14 Apr 2018 03:34:20 PM PDT


Gurobi 6.5.2 (linux64) logging started Sat 14 Apr 2018 03:37:07 PM PDT


Gurobi 6.5.2 (linux64) logging started Sat 14 Apr 2018 03:39:47 PM PDT


Gurobi 6.5.2 (linux64) logging started Sat 14 Apr 2018 03:46:19 PM PDT


Gurobi 6.5.2 (linux64) logging started Sat 14 Apr 2018 03:49:16 PM PDT


Gurobi 6.5.2 (linux64) logging started Sat 14 Apr 2018 03:51:07 PM PDT


Gurobi 6.5.2 (linux64) logging started Sat 14 Apr 2018 03:52:58 PM PDT


Gurobi 6.5.2 (linux64) logging started Sat 14 Apr 2018 03:54:29 PM PDT


Gurobi 6.5.2 (linux64) logging started Sat 14 Apr 2018 04:06:46 PM PDT


Gurobi 6.5.2 (linux64) logging started Sat 14 Apr 2018 04:12:27 PM PDT


Gurobi 6.5.2 (linux64) logging started Sat 14 Apr 2018 04:14:23 PM PDT


Gurobi 6.5.2 (linux64) logging started Sat 14 Apr 2018 04:15:59 PM PDT


Gurobi 6.5.2 (linux64) logging started Sat 14 Apr 2018 04:18:07 PM PDT


Gurobi 6.5.2 (linux64) logging started Sat 14 Apr 2018 04:20:29 PM PDT


Gurobi 6.5.2 (linux64) logging started Sat 14 Apr 2018 04:24:37 PM PDT


Gurobi 6.5.2 (linux64) logging started Sat 14 Apr 2018 04:38:22 PM PDT


Gurobi 6.5.2 (linux64) logging started Sat 14 Apr 2018 04:48:54 PM PDT


Gurobi 6.5.2 (linux64) logging started Sat 14 Apr 2018 04:53:39 PM PDT


Gurobi 6.5.2 (linux64) logging started Sat 14 Apr 2018 04:59:40 PM PDT


Gurobi 6.5.2 (linux64) logging started Sat 14 Apr 2018 05:06:15 PM PDT


Gurobi 6.5.2 (linux64) logging started Sat 14 Apr 2018 05:06:49 PM PDT


Gurobi 6.5.2 (linux64) logging started Sat 14 Apr 2018 05:11:50 PM PDT


Gurobi 6.5.2 (linux64) logging started Sat 14 Apr 2018 05:13:50 PM PDT


Gurobi 6.5.2 (linux64) logging started Sat 14 Apr 2018 05:21:36 PM PDT


Gurobi 6.5.2 (linux64) logging started Sat 14 Apr 2018 05:25:20 PM PDT


Gurobi 6.5.2 (linux64) logging started Sat 14 Apr 2018 05:30:14 PM PDT


Gurobi 6.5.2 (linux64) logging started Sat 14 Apr 2018 05:42:28 PM PDT


Gurobi 6.5.2 (linux64) logging started Sat 14 Apr 2018 05:55:51 PM PDT


Gurobi 6.5.2 (linux64) logging started Sat 14 Apr 2018 06:04:05 PM PDT


Gurobi 6.5.2 (linux64) logging started Sat 14 Apr 2018 06:06:40 PM PDT

